TIP.Original.Linear/tip2015_weird_nat_mul3acc_assoc1.smt2
(set-logic HORN)
(declare-datatypes ((Nat_402 0)) (((zero_94 ) (succ_92 (p_271 Nat_402)))))
(declare-fun diseqNat_402 (Nat_402 Nat_402) Bool)
(declare-fun p_272 (Nat_402 Nat_402) Bool)
(declare-fun iszero_92 (Nat_402) Bool)
(declare-fun issucc_92 (Nat_402) Bool)
(assert (forall ((x_45223 Nat_402))
	(p_272 x_45223 (succ_92 x_45223))))
(assert (iszero_92 zero_94))
(assert (forall ((x_45225 Nat_402))
	(issucc_92 (succ_92 x_45225))))
(assert (forall ((x_45226 Nat_402))
	(diseqNat_402 zero_94 (succ_92 x_45226))))
(assert (forall ((x_45227 Nat_402))
	(diseqNat_402 (succ_92 x_45227) zero_94)))
(assert (forall ((x_45228 Nat_402) (x_45229 Nat_402))
	(=> (diseqNat_402 x_45228 x_45229)
	    (diseqNat_402 (succ_92 x_45228) (succ_92 x_45229)))))
(declare-fun plus_94 (Nat_402 Nat_402 Nat_402) Bool)
(assert (forall ((x_45127 Nat_402) (z_1410 Nat_402) (y_1560 Nat_402))
	(=> (plus_94 x_45127 z_1410 y_1560)
	    (plus_94 (succ_92 x_45127) (succ_92 z_1410) y_1560))))
(assert (forall ((x_45128 Nat_402))
	(plus_94 x_45128 zero_94 x_45128)))
(declare-fun addacc_12 (Nat_402 Nat_402 Nat_402 Nat_402) Bool)
(assert (forall ((x_45129 Nat_402) (x_45112 Nat_402) (y_1561 Nat_402) (z_1411 Nat_402))
	(=> (addacc_12 x_45129 x_45112 (succ_92 y_1561) z_1411)
	    (addacc_12 x_45129 (succ_92 x_45112) y_1561 z_1411))))
(assert (forall ((x_45131 Nat_402) (x_45113 Nat_402) (z_1411 Nat_402))
	(=> (addacc_12 x_45131 zero_94 x_45113 (succ_92 z_1411))
	    (addacc_12 x_45131 zero_94 (succ_92 x_45113) z_1411))))
(assert (forall ((x_45133 Nat_402))
	(addacc_12 x_45133 zero_94 zero_94 x_45133)))
(declare-fun mulacc_4 (Nat_402 Nat_402 Nat_402 Nat_402) Bool)
(assert (forall ((x_45134 Nat_402) (x_45135 Nat_402) (x_45136 Nat_402) (x_45137 Nat_402) (x_45138 Nat_402) (x_45139 Nat_402) (x_45140 Nat_402) (fail_19 Nat_402))
	(=>	(and (mulacc_4 x_45134 zero_94 zero_94 zero_94)
			(mulacc_4 x_45135 (succ_92 zero_94) zero_94 zero_94)
			(mulacc_4 x_45136 zero_94 (succ_92 zero_94) zero_94)
			(mulacc_4 x_45137 zero_94 zero_94 (succ_92 zero_94))
			(addacc_12 x_45138 x_45135 x_45136 x_45137)
			(addacc_12 x_45139 (succ_92 zero_94) (succ_92 zero_94) (succ_92 zero_94))
			(addacc_12 x_45140 x_45134 x_45138 x_45139)
			(plus_94 fail_19 (succ_92 zero_94) x_45140))
		(mulacc_4 (succ_92 zero_94) (succ_92 zero_94) (succ_92 zero_94) (succ_92 zero_94)))))
(assert (forall ((x_45143 Nat_402) (x_45144 Nat_402) (x_45145 Nat_402) (x_45146 Nat_402) (x_45147 Nat_402) (x_45148 Nat_402) (x_45149 Nat_402) (fail_19 Nat_402) (x_45117 Nat_402) (x_45116 Nat_402) (x_45115 Nat_402))
	(=>	(and (diseqNat_402 x_45115 zero_94)
			(mulacc_4 x_45143 x_45115 x_45116 x_45117)
			(mulacc_4 x_45144 (succ_92 zero_94) x_45116 x_45117)
			(mulacc_4 x_45145 x_45115 (succ_92 zero_94) x_45117)
			(mulacc_4 x_45146 x_45115 x_45116 (succ_92 zero_94))
			(addacc_12 x_45147 x_45144 x_45145 x_45146)
			(addacc_12 x_45148 (succ_92 x_45115) (succ_92 x_45116) (succ_92 x_45117))
			(addacc_12 x_45149 x_45143 x_45147 x_45148)
			(plus_94 fail_19 (succ_92 zero_94) x_45149))
		(mulacc_4 fail_19 (succ_92 x_45115) (succ_92 x_45116) (succ_92 x_45117)))))
(assert (forall ((x_45152 Nat_402) (x_45153 Nat_402) (x_45154 Nat_402) (x_45155 Nat_402) (x_45156 Nat_402) (x_45157 Nat_402) (x_45158 Nat_402) (fail_19 Nat_402) (x_45117 Nat_402) (x_45116 Nat_402))
	(=>	(and (diseqNat_402 x_45116 zero_94)
			(mulacc_4 x_45152 zero_94 x_45116 x_45117)
			(mulacc_4 x_45153 (succ_92 zero_94) x_45116 x_45117)
			(mulacc_4 x_45154 zero_94 (succ_92 zero_94) x_45117)
			(mulacc_4 x_45155 zero_94 x_45116 (succ_92 zero_94))
			(addacc_12 x_45156 x_45153 x_45154 x_45155)
			(addacc_12 x_45157 (succ_92 zero_94) (succ_92 x_45116) (succ_92 x_45117))
			(addacc_12 x_45158 x_45152 x_45156 x_45157)
			(plus_94 fail_19 (succ_92 zero_94) x_45158))
		(mulacc_4 fail_19 (succ_92 zero_94) (succ_92 x_45116) (succ_92 x_45117)))))
(assert (forall ((x_45161 Nat_402) (x_45162 Nat_402) (x_45163 Nat_402) (x_45164 Nat_402) (x_45165 Nat_402) (x_45166 Nat_402) (x_45167 Nat_402) (fail_19 Nat_402) (x_45117 Nat_402) (x_45116 Nat_402) (x_45115 Nat_402))
	(=>	(and (diseqNat_402 x_45115 zero_94)
			(mulacc_4 x_45161 x_45115 x_45116 x_45117)
			(mulacc_4 x_45162 (succ_92 zero_94) x_45116 x_45117)
			(mulacc_4 x_45163 x_45115 (succ_92 zero_94) x_45117)
			(mulacc_4 x_45164 x_45115 x_45116 (succ_92 zero_94))
			(addacc_12 x_45165 x_45162 x_45163 x_45164)
			(addacc_12 x_45166 (succ_92 x_45115) (succ_92 x_45116) (succ_92 x_45117))
			(addacc_12 x_45167 x_45161 x_45165 x_45166)
			(plus_94 fail_19 (succ_92 zero_94) x_45167))
		(mulacc_4 fail_19 (succ_92 x_45115) (succ_92 x_45116) (succ_92 x_45117)))))
(assert (forall ((x_45170 Nat_402) (x_45171 Nat_402) (x_45172 Nat_402) (x_45173 Nat_402) (x_45174 Nat_402) (x_45175 Nat_402) (x_45176 Nat_402) (fail_19 Nat_402) (x_45117 Nat_402))
	(=>	(and (diseqNat_402 x_45117 zero_94)
			(mulacc_4 x_45170 zero_94 zero_94 x_45117)
			(mulacc_4 x_45171 (succ_92 zero_94) zero_94 x_45117)
			(mulacc_4 x_45172 zero_94 (succ_92 zero_94) x_45117)
			(mulacc_4 x_45173 zero_94 zero_94 (succ_92 zero_94))
			(addacc_12 x_45174 x_45171 x_45172 x_45173)
			(addacc_12 x_45175 (succ_92 zero_94) (succ_92 zero_94) (succ_92 x_45117))
			(addacc_12 x_45176 x_45170 x_45174 x_45175)
			(plus_94 fail_19 (succ_92 zero_94) x_45176))
		(mulacc_4 fail_19 (succ_92 zero_94) (succ_92 zero_94) (succ_92 x_45117)))))
(assert (forall ((x_45179 Nat_402) (x_45180 Nat_402) (x_45181 Nat_402) (x_45182 Nat_402) (x_45183 Nat_402) (x_45184 Nat_402) (x_45185 Nat_402) (fail_19 Nat_402) (x_45117 Nat_402) (x_45116 Nat_402) (x_45115 Nat_402))
	(=>	(and (diseqNat_402 x_45115 zero_94)
			(mulacc_4 x_45179 x_45115 x_45116 x_45117)
			(mulacc_4 x_45180 (succ_92 zero_94) x_45116 x_45117)
			(mulacc_4 x_45181 x_45115 (succ_92 zero_94) x_45117)
			(mulacc_4 x_45182 x_45115 x_45116 (succ_92 zero_94))
			(addacc_12 x_45183 x_45180 x_45181 x_45182)
			(addacc_12 x_45184 (succ_92 x_45115) (succ_92 x_45116) (succ_92 x_45117))
			(addacc_12 x_45185 x_45179 x_45183 x_45184)
			(plus_94 fail_19 (succ_92 zero_94) x_45185))
		(mulacc_4 fail_19 (succ_92 x_45115) (succ_92 x_45116) (succ_92 x_45117)))))
(assert (forall ((x_45188 Nat_402) (x_45189 Nat_402) (x_45190 Nat_402) (x_45191 Nat_402) (x_45192 Nat_402) (x_45193 Nat_402) (x_45194 Nat_402) (fail_19 Nat_402) (x_45117 Nat_402) (x_45116 Nat_402))
	(=>	(and (diseqNat_402 x_45116 zero_94)
			(mulacc_4 x_45188 zero_94 x_45116 x_45117)
			(mulacc_4 x_45189 (succ_92 zero_94) x_45116 x_45117)
			(mulacc_4 x_45190 zero_94 (succ_92 zero_94) x_45117)
			(mulacc_4 x_45191 zero_94 x_45116 (succ_92 zero_94))
			(addacc_12 x_45192 x_45189 x_45190 x_45191)
			(addacc_12 x_45193 (succ_92 zero_94) (succ_92 x_45116) (succ_92 x_45117))
			(addacc_12 x_45194 x_45188 x_45192 x_45193)
			(plus_94 fail_19 (succ_92 zero_94) x_45194))
		(mulacc_4 fail_19 (succ_92 zero_94) (succ_92 x_45116) (succ_92 x_45117)))))
(assert (forall ((x_45197 Nat_402) (x_45198 Nat_402) (x_45199 Nat_402) (x_45200 Nat_402) (x_45201 Nat_402) (x_45202 Nat_402) (x_45203 Nat_402) (fail_19 Nat_402) (x_45117 Nat_402) (x_45116 Nat_402) (x_45115 Nat_402))
	(=>	(and (diseqNat_402 x_45115 zero_94)
			(mulacc_4 x_45197 x_45115 x_45116 x_45117)
			(mulacc_4 x_45198 (succ_92 zero_94) x_45116 x_45117)
			(mulacc_4 x_45199 x_45115 (succ_92 zero_94) x_45117)
			(mulacc_4 x_45200 x_45115 x_45116 (succ_92 zero_94))
			(addacc_12 x_45201 x_45198 x_45199 x_45200)
			(addacc_12 x_45202 (succ_92 x_45115) (succ_92 x_45116) (succ_92 x_45117))
			(addacc_12 x_45203 x_45197 x_45201 x_45202)
			(plus_94 fail_19 (succ_92 zero_94) x_45203))
		(mulacc_4 fail_19 (succ_92 x_45115) (succ_92 x_45116) (succ_92 x_45117)))))
(assert (forall ((x_45116 Nat_402) (x_45115 Nat_402))
	(mulacc_4 zero_94 (succ_92 x_45115) (succ_92 x_45116) zero_94)))
(assert (forall ((x_45115 Nat_402) (z_1412 Nat_402))
	(mulacc_4 zero_94 (succ_92 x_45115) zero_94 z_1412)))
(assert (forall ((y_1562 Nat_402) (z_1412 Nat_402))
	(mulacc_4 zero_94 zero_94 y_1562 z_1412)))
(assert (forall ((x_45209 Nat_402) (x_45210 Nat_402) (x_45211 Nat_402) (x_45212 Nat_402) (x_45118 Nat_402) (x_45119 Nat_402) (xacc_2 Nat_402) (x_45120 Nat_402) (x_45121 Nat_402))
	(=>	(and true
			(diseqNat_402 x_45210 x_45212)
			(mulacc_4 x_45209 x_45118 x_45119 xacc_2)
			(mulacc_4 x_45210 x_45209 x_45120 x_45121)
			(mulacc_4 x_45211 xacc_2 x_45120 x_45121)
			(mulacc_4 x_45212 x_45118 x_45119 x_45211))
		false)))
(assert (forall ((x_45213 Nat_402) (x_45214 Nat_402) (x_45215 Nat_402) (x_45216 Nat_402) (x_45122 Nat_402) (y_1563 Nat_402) (z_1413 Nat_402))
	(=>	(and true
			(diseqNat_402 x_45214 x_45216)
			(plus_94 x_45213 y_1563 z_1413)
			(plus_94 x_45214 x_45122 x_45213)
			(plus_94 x_45215 x_45122 y_1563)
			(plus_94 x_45216 x_45215 z_1413))
		false)))
(assert (forall ((x_45217 Nat_402) (x_45218 Nat_402) (x_45123 Nat_402) (y_1564 Nat_402))
	(=>	(and true
			(diseqNat_402 x_45217 x_45218)
			(plus_94 x_45217 x_45123 y_1564)
			(plus_94 x_45218 y_1564 x_45123))
		false)))
(assert (forall ((x_45219 Nat_402) (x_45124 Nat_402))
	(=>	(and true
			(diseqNat_402 x_45219 x_45124)
			(plus_94 x_45219 x_45124 zero_94))
		false)))
(assert (forall ((x_45220 Nat_402) (x_45125 Nat_402))
	(=>	(and true
			(diseqNat_402 x_45220 x_45125)
			(plus_94 x_45220 zero_94 x_45125))
		false)))
(check-sat)
